src/LKH/IO/anjos-75-03.tour
NAME : anjos-75-03.-164.tour
COMMENT : Length = -164
COMMENT : Found by LKH [Keld Helsgaun] Sun Apr 13 17:05:00 2025
TYPE : TOUR
DIMENSION : 75
TOUR_SECTION
1
2
18
74
32
25
58
12
9
30
11
57
65
60
36
40
62
35
61
21
26
49
72
39
46
63
33
69
47
29
15
42
20
22
73
17
4
5
41
27
13
43
10
19
68
23
51
14
53
6
8
16
52
38
55
50
66
45
56
7
31
3
75
67
59
48
24
44
54
71
64
28
37
34
70
-1
EOF
